db/data/183813166719268242972018511859231859688.z3.out
-------------------
2500.216573242
